n = 85;
rows = 186;
supports = [|
  {1},2..10,
 |{1},77..85,
 |{2},{1},
 |{2},3..11,
 |{2},78..85,
 |{3},1..2,
 |{3},4..12,
 |{3},79..85,
 |{4},1..3,
 |{4},5..13,
 |{4},80..85,
 |{5},1..4,
 |{5},6..14,
 |{5},81..85,
 |{6},1..5,
 |{6},7..15,
 |{6},82..85,
 |{7},1..6,
 |{7},8..16,
 |{7},83..85,
 |{8},1..7,
 |{8},9..17,
 |{8},84..85,
 |{9},1..8,
 |{9},10..18,
 |{9},{85},
 |{10},1..9,
 |{10},11..19,
 |{11},2..10,
 |{11},12..20,
 |{12},3..11,
 |{12},13..21,
 |{13},4..12,
 |{13},14..22,
 |{14},5..13,
 |{14},15..23,
 |{15},6..14,
 |{15},16..24,
 |{16},7..15,
 |{16},17..25,
 |{17},8..16,
 |{17},18..26,
 |{18},9..17,
 |{18},19..27,
 |{19},10..18,
 |{19},20..28,
 |{20},11..19,
 |{20},21..29,
 |{21},12..20,
 |{21},22..30,
 |{22},13..21,
 |{22},23..31,
 |{23},14..22,
 |{23},24..32,
 |{24},15..23,
 |{24},25..33,
 |{25},16..24,
 |{25},26..34,
 |{26},17..25,
 |{26},27..35,
 |{27},18..26,
 |{27},28..36,
 |{28},19..27,
 |{28},29..37,
 |{29},20..28,
 |{29},30..38,
 |{30},21..29,
 |{30},31..39,
 |{31},22..30,
 |{31},32..40,
 |{32},23..31,
 |{32},33..41,
 |{33},24..32,
 |{33},34..42,
 |{34},25..33,
 |{34},35..43,
 |{35},26..34,
 |{35},36..44,
 |{36},27..35,
 |{36},37..45,
 |{37},28..36,
 |{37},38..46,
 |{38},29..37,
 |{38},39..47,
 |{39},30..38,
 |{39},40..48,
 |{40},31..39,
 |{40},41..49,
 |{41},32..40,
 |{41},42..50,
 |{42},33..41,
 |{42},43..51,
 |{43},34..42,
 |{43},44..52,
 |{44},35..43,
 |{44},45..53,
 |{45},36..44,
 |{45},46..54,
 |{46},37..45,
 |{46},47..55,
 |{47},38..46,
 |{47},48..56,
 |{48},39..47,
 |{48},49..57,
 |{49},40..48,
 |{49},50..58,
 |{50},41..49,
 |{50},51..59,
 |{51},42..50,
 |{51},52..60,
 |{52},43..51,
 |{52},53..61,
 |{53},44..52,
 |{53},54..62,
 |{54},45..53,
 |{54},55..63,
 |{55},46..54,
 |{55},56..64,
 |{56},47..55,
 |{56},57..65,
 |{57},48..56,
 |{57},58..66,
 |{58},49..57,
 |{58},59..67,
 |{59},50..58,
 |{59},60..68,
 |{60},51..59,
 |{60},61..69,
 |{61},52..60,
 |{61},62..70,
 |{62},53..61,
 |{62},63..71,
 |{63},54..62,
 |{63},64..72,
 |{64},55..63,
 |{64},65..73,
 |{65},56..64,
 |{65},66..74,
 |{66},57..65,
 |{66},67..75,
 |{67},58..66,
 |{67},68..76,
 |{68},59..67,
 |{68},69..77,
 |{69},60..68,
 |{69},70..78,
 |{70},61..69,
 |{70},71..79,
 |{71},62..70,
 |{71},72..80,
 |{72},63..71,
 |{72},73..81,
 |{73},64..72,
 |{73},74..82,
 |{74},65..73,
 |{74},75..83,
 |{75},66..74,
 |{75},76..84,
 |{76},67..75,
 |{76},77..85,
 |{77},68..76,
 |{77},78..85,
 |{77},{1},
 |{78},69..77,
 |{78},79..85,
 |{78},1..2,
 |{79},70..78,
 |{79},80..85,
 |{79},1..3,
 |{80},71..79,
 |{80},81..85,
 |{80},1..4,
 |{81},72..80,
 |{81},82..85,
 |{81},1..5,
 |{82},73..81,
 |{82},83..85,
 |{82},1..6,
 |{83},74..82,
 |{83},84..85,
 |{83},1..7,
 |{84},75..83,
 |{84},{85},
 |{84},1..8,
 |{85},76..84,
 |{85},1..9 |];

t = 219;

indexes = [|
    0,6,
  | 0,24,
  | 0,30,
  | 0,60,
  | 0,77,
  | 1,8,
  | 1,13,
  | 1,26,
  | 1,50,
  | 1,73,
  | 1,76,
  | 1,79,
  | 2,23,
  | 2,58,
  | 2,59,
  | 2,67,
  | 2,75,
  | 3,15,
  | 3,21,
  | 3,61,
  | 3,68,
  | 3,69,
  | 3,84,
  | 4,23,
  | 4,27,
  | 4,40,
  | 4,58,
  | 5,18,
  | 5,51,
  | 5,63,
  | 5,67,
  | 5,83,
  | 6,15,
  | 6,26,
  | 6,38,
  | 6,60,
  | 6,77,
  | 6,79,
  | 7,10,
  | 7,37,
  | 7,41,
  | 7,57,
  | 7,66,
  | 8,13,
  | 8,49,
  | 8,50,
  | 8,61,
  | 9,10,
  | 9,48,
  | 10,37,
  | 10,41,
  | 10,48,
  | 10,66,
  | 11,29,
  | 11,36,
  | 11,53,
  | 12,20,
  | 12,25,
  | 12,34,
  | 12,35,
  | 12,54,
  | 12,81,
  | 13,23,
  | 13,25,
  | 13,39,
  | 13,40,
  | 13,43,
  | 13,49,
  | 13,73,
  | 14,31,
  | 14,33,
  | 14,56,
  | 14,57,
  | 14,71,
  | 15,26,
  | 15,38,
  | 15,50,
  | 15,61,
  | 15,84,
  | 16,46,
  | 16,64,
  | 16,72,
  | 17,19,
  | 17,28,
  | 17,34,
  | 17,44,
  | 17,54,
  | 17,65,
  | 18,30,
  | 18,51,
  | 18,67,
  | 18,74,
  | 18,77,
  | 18,79,
  | 19,21,
  | 19,28,
  | 19,42,
  | 19,62,
  | 19,65,
  | 19,69,
  | 20,32,
  | 20,34,
  | 20,52,
  | 20,81,
  | 21,62,
  | 21,64,
  | 21,68,
  | 21,69,
  | 22,36,
  | 22,47,
  | 22,53,
  | 22,78,
  | 23,40,
  | 23,58,
  | 23,59,
  | 23,73,
  | 24,30,
  | 24,60,
  | 25,35,
  | 25,43,
  | 25,49,
  | 25,54,
  | 26,50,
  | 26,79,
  | 27,40,
  | 28,49,
  | 28,54,
  | 28,61,
  | 28,69,
  | 29,53,
  | 29,70,
  | 29,72,
  | 30,51,
  | 30,77,
  | 31,45,
  | 31,46,
  | 31,55,
  | 31,56,
  | 31,71,
  | 32,34,
  | 32,37,
  | 32,44,
  | 32,52,
  | 32,80,
  | 33,37,
  | 33,44,
  | 33,57,
  | 33,65,
  | 33,71,
  | 33,80,
  | 34,44,
  | 34,54,
  | 35,39,
  | 35,43,
  | 35,81,
  | 36,53,
  | 37,52,
  | 37,57,
  | 37,66,
  | 37,80,
  | 38,60,
  | 38,82,
  | 38,84,
  | 39,40,
  | 39,43,
  | 42,55,
  | 42,62,
  | 42,65,
  | 42,71,
  | 44,65,
  | 44,80,
  | 45,46,
  | 45,56,
  | 45,70,
  | 45,72,
  | 46,55,
  | 46,62,
  | 46,64,
  | 46,72,
  | 47,56,
  | 47,78,
  | 48,52,
  | 48,66,
  | 49,54,
  | 49,61,
  | 50,61,
  | 51,63,
  | 52,66,
  | 52,81,
  | 53,70,
  | 53,78,
  | 55,62,
  | 55,71,
  | 56,70,
  | 56,78,
  | 58,75,
  | 59,67,
  | 59,73,
  | 59,76,
  | 60,82,
  | 61,69,
  | 62,64,
  | 63,67,
  | 63,75,
  | 63,83,
  | 64,68,
  | 65,71,
  | 67,74,
  | 67,75,
  | 67,76,
  | 68,84,
  | 70,72,
  | 70,78,
  | 73,76,
  | 74,76,
  | 74,79,
  | 76,79,
  | 77,79,
  | 82,84 |];

